&FORCE_EVAL
    &SUBSYS
        &KIND O
            BASIS_SET TZV2P-GTH-q6
            POTENTIAL GTH-PBE-q6
        &END KIND
        &KIND H
            BASIS_SET TZV2P-GTH-q1
            POTENTIAL GTH-PBE-q1
        &END KIND
        &CELL
            ABC 17.29 17.112 27.2
            PERIODIC XYZ
        &END CELL
        &TOPOLOGY
            COORD_FILE_FORMAT XYZ
            COORD_FILE_NAME trajectory-input.xyz
            CONN_FILE_FORMAT OFF
        &END TOPOLOGY
    &END SUBSYS

    &DFT
        CHARGE -1
        BASIS_SET_FILE_NAME GTH_BASIS_SETS
        BASIS_SET_FILE_NAME BASIS_MOLOPT
        POTENTIAL_FILE_NAME POTENTIAL
        &XC
            &VDW_POTENTIAL
                POTENTIAL_TYPE PAIR_POTENTIAL
                &PAIR_POTENTIAL
                    TYPE DFTD3
                    R_CUTOFF 15.0
                    LONG_RANGE_CORRECTION .TRUE.
                    REFERENCE_FUNCTIONAL revPBE
                    PARAMETER_FILE_NAME dftd3.dat
                &END PAIR_POTENTIAL
            &END VDW_POTENTIAL
            &XC_GRID
                XC_DERIV SPLINE2_SMOOTH
            &END XC_GRID
            &XC_FUNCTIONAL
                &PBE
                    PARAMETRIZATION REVPBE
                &END PBE
            &END XC_FUNCTIONAL
        &END XC
        &QS
            EPS_DEFAULT 1e-12
            EPS_PGF_ORB 1e-14
        &END QS
        &SCF
            SCF_GUESS ATOMIC
            MAX_SCF 20
            EPS_SCF 5e-07
            &PRINT
                &RESTART
                    ADD_LAST NUMERIC
                    &EACH
                        QS_SCF 0
                    &END EACH
                &END RESTART
            &END PRINT
            &OUTER_SCF
                MAX_SCF 5
                EPS_SCF 5e-07
            &END OUTER_SCF
            &MIXING
                METHOD BROYDEN_MIXING
                ALPHA 0.4
                BETA 0.5
                NBUFFER 8
            &END MIXING
            &DIAGONALIZATION
                ALGORITHM STANDARD
            &END DIAGONALIZATION
        &END SCF
        &MGRID
            CUTOFF 1050.0
            NGRIDS 5
        &END MGRID
        &PRINT
            &E_DENSITY_CUBE
                FILENAME valence_density
                STRIDE 1
            &END E_DENSITY_CUBE
            &HIRSHFELD ON
                FILENAME ./hirshfeld
                SELF_CONSISTENT T
                SHAPE_FUNCTION DENSITY
            &END HIRSHFELD
            &MULLIKEN ON
                FILENAME ./mulliken
            &END MULLIKEN
        &END PRINT
    &END DFT
&END FORCE_EVAL

&MOTION
    &PRINT
        &TRAJECTORY
            FILENAME structure.pdb
            FORMAT PDB
            &EACH
                MD 1
            &END EACH
        &END TRAJECTORY
    &END PRINT
    &MD
        STEPS 0
    &END MD
&END MOTION

&GLOBAL
    PRINT_LEVEL LOW
    RUN_TYPE MD
    PROJECT_NAME step-0
&END GLOBAL
